c Output_time 26.03.2020 18:15:36_+0100 1585242936685810933
c ** Program information **
c program_name                          "QBRG_debug"
c version                               "0.3.20"
c date                                  "25.3.2020"
c gid_id                                "673970833836058123f633335630c185360d632e"
c author                                "Oliver Kullmann"
c url                                   "https://github.com/OKullmann/oklibrary/blob/master/Satisfiability/Transformers/Generators/Random/QBRG.cpp"
c ** Machine information **
c machine_name                          "chyna-Lenovo-G50-70"
c bogomips                              3791.08
c ** Compilation information **
c compiler_version                      "g++ 7.5.0"
c compilation_date                      "Mar_26_2020 11:16:30"
c compilation_options                   "--std=c++17 -pedantic -fmax-errors=5 -Wall -Wextra -g -D_GLIBCXX_DEBUG"
c NDEBUG                                0
c OPTIMIZE                              0
c ** Parameters **
c command-line                          "./QBRG_debug" "a40 e40 a40 40" "670*1,1|2-2,1|3-3,1|4-4,1" "" "1,t" ""
c output                                "QuBlRaGe_160_670_1585242936522303392.qdimacs"
c options                               "filtered,renamed"
c num_quantifier_blocks                 4
c  quantifier_blocks                    1:a1-40 2:e41-80 3:a81-120 4:e121-160
c num_clause-blocks                     1
c  clause-blocks                        670 * {1-40,1,1/2} | {41-80,1,1/2} | {81-120,1,1/2} | {121-160,1,1/2}
c num_e-seeds                           37+2=39
c  e-seeds                              1 0 1 0 5 160 2 40 0 40 1 40 0 40 1 670 4 1 1 1 1 2 2 2 1 1 2 3 3 1 1 2 4 4 1 1 2 1 1585242936522302350
p cnf 160 670
a 1 2 3 4 5 6 7 8 9 10 11 12 13 14 15 16 17 18 19 20 21 22 23 24 25 26 27 28 29 30 31 32 33 34 35 36 37 38 39 40 0
e 41 42 43 44 45 46 47 48 49 50 51 52 53 54 55 56 57 58 59 60 61 62 63 64 65 66 67 68 69 70 71 72 73 74 75 76 77 78 79 80 0
a 81 82 83 84 85 86 87 88 89 90 91 92 93 94 95 96 97 98 99 100 101 102 103 104 105 106 107 108 109 110 111 112 113 114 115 116 117 118 119 120 0
e 121 122 123 124 125 126 127 128 129 130 131 132 133 134 135 136 137 138 139 140 141 142 143 144 145 146 147 148 149 150 151 152 153 154 155 156 157 158 159 160 0
16 63 -97 -121 0
18 -72 -97 -121 0
31 68 -104 -121 0
10 -54 -115 -121 0
-2 -73 -84 121 0
-33 -44 86 121 0
22 55 97 121 0
-11 61 -100 121 0
40 -44 101 121 0
-38 -51 107 121 0
32 80 -118 121 0
-31 65 119 121 0
18 -67 120 121 0
24 -56 -83 -122 0
-36 64 86 -122 0
-22 60 -90 -122 0
3 43 94 -122 0
7 48 -100 -122 0
-33 -51 106 -122 0
18 -62 -107 -122 0
-34 51 107 -122 0
-26 52 -115 -122 0
-31 -55 -115 -122 0
-4 -58 -116 -122 0
4 74 -119 -122 0
-7 44 -83 122 0
26 -60 85 122 0
-6 79 -89 122 0
8 -61 -92 122 0
33 -61 -93 122 0
16 -68 -95 122 0
-25 80 102 122 0
8 -80 -104 122 0
9 47 107 122 0
29 -66 116 122 0
12 41 81 -123 0
-29 61 88 -123 0
-10 -76 97 -123 0
-21 -68 110 -123 0
26 -71 118 -123 0
7 -47 -91 123 0
25 71 -96 123 0
23 69 101 123 0
-9 -76 104 123 0
-22 -62 106 123 0
3 56 82 -124 0
24 -52 -87 -124 0
-13 -48 -104 -124 0
5 52 -105 -124 0
3 75 108 -124 0
-16 -49 110 -124 0
-14 -51 -86 124 0
3 -74 91 124 0
31 52 95 124 0
-1 -48 106 124 0
17 74 -110 124 0
17 67 -119 124 0
-26 72 -111 -125 0
15 52 118 -125 0
-33 73 -87 125 0
-2 -64 -94 125 0
-11 -72 -106 125 0
-23 -58 -109 125 0
-1 -59 -111 125 0
-25 -64 115 125 0
-35 73 85 -126 0
14 69 88 -126 0
-23 54 102 -126 0
-17 -54 106 -126 0
-18 70 -108 -126 0
-36 -60 117 -126 0
1 -60 -119 -126 0
8 75 120 -126 0
-15 -43 -84 126 0
-40 73 -95 126 0
33 78 -96 126 0
33 52 103 126 0
5 -54 108 126 0
-35 -57 -109 126 0
-8 -72 119 126 0
-22 70 120 126 0
-19 -68 -81 -127 0
12 66 -88 -127 0
30 62 92 -127 0
-38 -42 94 -127 0
-14 -75 95 -127 0
-19 -54 96 -127 0
36 78 97 -127 0
25 -71 -98 -127 0
10 51 -102 -127 0
-5 59 -105 -127 0
18 -42 -108 -127 0
-6 -67 -111 -127 0
12 -41 -114 -127 0
28 -54 -114 -127 0
-13 -48 -115 -127 0
-26 52 84 127 0
28 -46 -92 127 0
18 -64 96 127 0
1 -77 -105 127 0
-28 61 107 127 0
-30 44 108 127 0
29 57 -113 127 0
-11 -49 114 127 0
27 41 117 127 0
-17 -49 83 -128 0
-36 -43 -89 -128 0
21 -59 -95 -128 0
30 -73 -96 -128 0
-13 -52 100 -128 0
-27 78 -102 -128 0
-36 -42 -103 -128 0
-32 -66 -103 -128 0
-37 -51 107 -128 0
-18 -59 111 -128 0
10 -54 112 -128 0
-31 -47 119 -128 0
-38 -54 83 128 0
-5 57 -86 128 0
-36 -80 -87 128 0
16 -49 90 128 0
-11 -67 90 128 0
-36 -69 -91 128 0
-32 76 91 128 0
-20 43 -92 128 0
33 -68 -103 128 0
15 -44 109 128 0
-6 -44 117 128 0
-7 -61 117 128 0
38 -42 -94 -129 0
-17 79 -95 -129 0
40 44 -98 -129 0
18 63 100 -129 0
26 -72 108 -129 0
-12 -50 -111 -129 0
-24 78 -111 -129 0
-19 -70 114 -129 0
-16 62 -117 -129 0
-13 63 82 129 0
-4 -66 83 129 0
-30 70 91 129 0
-21 59 -105 129 0
16 70 -109 129 0
-21 50 -110 129 0
36 50 -110 129 0
16 -71 115 129 0
7 43 -99 -130 0
18 53 103 -130 0
18 -68 116 -130 0
14 55 -85 130 0
33 -68 -85 130 0
2 69 85 130 0
-40 -57 -86 130 0
14 -46 -101 130 0
-34 51 -103 130 0
-20 -54 -107 130 0
-25 -41 111 130 0
13 43 -88 -131 0
2 44 -90 -131 0
33 -46 95 -131 0
16 -76 -96 -131 0
-29 70 96 -131 0
-36 59 -105 -131 0
19 -56 -108 -131 0
-4 -42 -116 -131 0
-3 65 -116 -131 0
35 -73 -120 -131 0
38 -44 -83 131 0
5 -50 -86 131 0
-23 60 93 131 0
-37 70 94 131 0
-22 -54 96 131 0
-38 -49 -97 131 0
-21 -77 100 131 0
26 -52 -111 131 0
-8 57 120 131 0
-32 -75 83 -132 0
-24 53 -90 -132 0
25 -60 -92 -132 0
-12 -49 -95 -132 0
27 42 101 -132 0
23 59 -104 -132 0
6 -54 113 -132 0
26 -70 115 -132 0
18 56 116 -132 0
-21 -64 117 -132 0
4 59 -119 -132 0
-16 -80 120 -132 0
25 41 -95 132 0
-16 68 -95 132 0
-34 61 98 132 0
-5 69 -100 132 0
-38 -76 101 132 0
29 -78 103 132 0
27 -45 105 132 0
-23 69 105 132 0
8 -61 -108 132 0
-12 73 -110 132 0
37 -74 -119 132 0
13 75 82 -133 0
33 66 -84 -133 0
17 -60 100 -133 0
18 -54 -111 -133 0
33 42 118 -133 0
33 -80 83 133 0
21 -75 -92 133 0
28 46 -95 133 0
16 73 -100 133 0
-9 70 -110 133 0
-7 -61 115 133 0
15 79 -82 -134 0
33 47 85 -134 0
13 -58 -87 -134 0
28 -51 106 -134 0
4 -56 -118 -134 0
32 79 -87 134 0
-9 69 87 134 0
-32 60 89 134 0
-9 60 92 134 0
-35 50 -97 134 0
35 63 -97 134 0
-31 -46 -98 134 0
-16 63 -98 134 0
9 -43 -100 134 0
-29 -62 101 134 0
-40 49 -103 134 0
-26 74 -108 134 0
12 47 81 -135 0
-14 -54 81 -135 0
27 55 -82 -135 0
28 -66 84 -135 0
-30 43 86 -135 0
-19 -49 -87 -135 0
3 52 87 -135 0
-33 73 92 -135 0
27 79 96 -135 0
38 47 -98 -135 0
-14 62 101 -135 0
15 -48 106 -135 0
31 -45 110 -135 0
-31 -64 -111 -135 0
22 -79 112 -135 0
-40 -65 113 -135 0
6 -66 -118 -135 0
-16 -72 -81 135 0
-33 -76 -84 135 0
36 -47 86 135 0
14 -43 92 135 0
6 63 -93 135 0
-18 -68 -93 135 0
21 49 95 135 0
26 53 -99 135 0
-39 -53 103 135 0
-11 -53 -110 135 0
-13 44 -112 135 0
-17 45 -113 135 0
30 69 -117 135 0
-28 50 84 -136 0
3 -73 88 -136 0
-22 55 103 -136 0
30 -78 105 -136 0
-39 58 108 -136 0
37 -77 110 -136 0
-38 45 -84 136 0
-8 -60 -86 136 0
-19 -42 89 136 0
-39 44 91 136 0
-10 67 93 136 0
-9 46 98 136 0
35 -55 -105 136 0
8 45 111 136 0
7 -50 112 136 0
13 68 81 -137 0
-14 -77 -83 -137 0
9 50 -86 -137 0
14 79 -94 -137 0
4 -42 -98 -137 0
25 -45 -100 -137 0
6 -64 -117 -137 0
22 -59 -83 137 0
-27 41 83 137 0
-5 46 -87 137 0
-23 61 -87 137 0
-39 53 101 137 0
6 -66 -109 137 0
12 61 85 -138 0
-8 79 90 -138 0
-40 -48 -96 -138 0
-39 -55 -98 -138 0
-24 65 -99 -138 0
-9 -70 100 -138 0
22 -70 100 -138 0
-31 -53 108 -138 0
25 64 109 -138 0
39 56 111 -138 0
-38 -70 -114 -138 0
26 -77 -85 138 0
-9 49 -86 138 0
-9 48 -89 138 0
-17 76 -93 138 0
14 58 -104 138 0
-35 -78 107 138 0
-26 71 -113 138 0
37 71 115 138 0
27 73 -86 -139 0
-18 -72 -90 -139 0
-4 -75 92 -139 0
-22 -47 103 -139 0
-13 -53 -115 -139 0
-31 -44 -81 139 0
-35 64 -91 139 0
29 -70 -94 139 0
4 -49 96 139 0
10 -50 100 139 0
40 75 104 139 0
34 72 108 139 0
32 41 112 139 0
-23 52 -116 139 0
-13 54 118 139 0
10 75 118 139 0
-20 -54 83 -140 0
33 53 -87 -140 0
-15 68 89 -140 0
14 -73 -90 -140 0
-19 58 93 -140 0
21 70 -95 -140 0
-27 -53 -97 -140 0
-10 61 -104 -140 0
-35 69 105 -140 0
-23 75 112 -140 0
-14 -43 -83 140 0
-32 -69 -85 140 0
-6 -73 85 140 0
11 -57 -87 140 0
26 -73 88 140 0
-11 70 -92 140 0
32 61 -93 140 0
2 -66 107 140 0
-20 53 -112 140 0
36 53 -116 140 0
33 -67 -118 140 0
-34 42 83 -141 0
-6 -64 88 -141 0
13 79 -89 -141 0
13 -56 -108 -141 0
35 -44 -110 -141 0
25 -77 -113 -141 0
-32 -50 117 -141 0
12 -79 117 -141 0
24 -46 -119 -141 0
1 -57 119 -141 0
-16 48 -94 141 0
29 -58 95 141 0
-5 77 96 141 0
14 -57 103 141 0
-21 -44 108 141 0
11 -50 -109 141 0
-38 56 -112 141 0
19 53 81 -142 0
-20 69 -94 -142 0
27 62 -95 -142 0
-36 75 -98 -142 0
33 62 -99 -142 0
17 52 103 -142 0
-40 44 104 -142 0
-27 -53 106 -142 0
-23 61 112 -142 0
-25 71 -81 142 0
-22 78 -93 142 0
-23 -52 96 142 0
40 -64 98 142 0
-39 77 105 142 0
-29 -54 -108 142 0
-23 -49 115 142 0
18 -68 91 -143 0
-13 68 96 -143 0
19 66 -110 -143 0
-13 -68 -112 -143 0
-6 43 -82 143 0
30 -73 83 143 0
22 -63 91 143 0
-23 -77 95 143 0
10 65 -97 143 0
-39 62 -101 143 0
6 41 101 143 0
23 -68 -106 143 0
25 -52 -108 143 0
8 53 108 143 0
-11 -78 -110 143 0
-11 62 -114 143 0
10 -75 95 -144 0
-38 62 97 -144 0
-13 71 111 -144 0
6 -77 120 -144 0
25 70 -86 144 0
31 -75 -93 144 0
-2 -72 -94 144 0
-17 -60 -104 144 0
-24 68 117 144 0
-25 61 86 -145 0
-31 -79 87 -145 0
-40 65 -88 -145 0
-36 -63 -90 -145 0
26 43 -93 -145 0
-2 -62 97 -145 0
28 -74 98 -145 0
37 70 -104 -145 0
-19 -63 -108 -145 0
25 -71 -113 -145 0
-32 43 116 -145 0
-27 -66 83 145 0
-3 73 -96 145 0
22 -53 -104 145 0
19 62 -109 145 0
-18 -75 112 145 0
3 -55 -114 145 0
7 -49 82 -146 0
37 -69 -84 -146 0
-26 -63 -85 -146 0
-7 61 -96 -146 0
27 61 97 -146 0
11 -75 -109 -146 0
-6 70 -110 -146 0
-36 -80 -111 -146 0
-19 -70 113 -146 0
-17 -57 -116 -146 0
-34 78 92 146 0
28 -48 102 146 0
-39 -52 -105 146 0
28 55 -108 146 0
10 -59 -109 146 0
26 -79 -114 146 0
39 42 -117 146 0
-17 54 -117 146 0
-27 47 92 -147 0
-33 -55 -103 147 0
-27 -77 -81 -148 0
-6 66 -87 -148 0
-8 70 89 -148 0
-10 45 90 -148 0
37 52 93 -148 0
-8 -45 -99 -148 0
-13 66 110 -148 0
4 -77 110 -148 0
-27 -48 -118 -148 0
25 -48 -119 -148 0
40 -78 -120 -148 0
21 -56 84 148 0
-18 63 92 148 0
3 73 -93 148 0
-9 66 106 148 0
33 73 111 148 0
-12 -47 112 148 0
-20 -55 -113 148 0
-7 -52 119 148 0
-34 71 119 148 0
-6 -64 -87 -149 0
-30 54 -89 -149 0
28 -45 90 -149 0
-30 48 104 -149 0
-2 79 -106 -149 0
39 67 -119 -149 0
3 51 82 149 0
16 65 -85 149 0
11 57 88 149 0
5 -60 89 149 0
40 -66 94 149 0
20 63 95 149 0
26 49 96 149 0
13 -53 -98 149 0
-33 -60 98 149 0
-34 76 114 149 0
-20 44 -118 149 0
-29 77 -84 -150 0
-33 -49 -96 -150 0
9 -47 96 -150 0
22 -76 -105 -150 0
18 64 107 -150 0
-6 -75 -109 -150 0
-8 -41 111 -150 0
-34 -78 118 -150 0
20 62 119 -150 0
-15 52 82 150 0
26 57 -83 150 0
-7 -77 -83 150 0
-37 -70 91 150 0
19 79 109 150 0
34 50 114 150 0
14 61 -116 150 0
-22 -60 81 -151 0
40 -73 -86 -151 0
-2 -49 -88 -151 0
20 -55 -88 -151 0
-4 -71 -89 -151 0
-7 -43 -91 -151 0
-14 45 -96 -151 0
-30 44 -81 151 0
-30 61 97 151 0
-37 59 -107 151 0
-29 -72 109 151 0
6 70 -110 151 0
6 -63 111 151 0
-39 64 115 151 0
-34 -59 -117 151 0
-31 -53 117 151 0
-33 44 118 151 0
-21 66 -88 -152 0
-12 -51 -96 -152 0
-22 74 104 -152 0
33 61 106 -152 0
-29 56 -114 -152 0
33 -44 114 -152 0
3 -42 -117 -152 0
-27 53 -117 -152 0
-31 -64 118 -152 0
27 52 -89 152 0
-12 -55 89 152 0
-13 -68 -95 152 0
-39 58 96 152 0
-22 -53 -102 152 0
-16 -54 106 152 0
30 67 -107 152 0
28 43 -120 152 0
-5 -47 86 -153 0
-32 -42 -87 -153 0
17 47 -97 -153 0
-7 48 -97 -153 0
6 -41 -98 -153 0
-37 -65 102 -153 0
5 56 108 -153 0
3 49 -111 -153 0
38 44 -118 -153 0
24 52 84 153 0
-37 60 88 153 0
-23 45 -93 153 0
-10 -75 -94 153 0
-7 -42 -107 153 0
-18 50 -110 153 0
-3 63 -120 153 0
26 -49 -92 -154 0
3 -41 98 -154 0
-38 -62 99 -154 0
24 64 -106 -154 0
-21 -77 118 -154 0
-35 -77 81 154 0
31 72 83 154 0
8 -44 -85 154 0
-29 47 -85 154 0
-12 -70 85 154 0
-40 73 -89 154 0
12 58 93 154 0
3 -76 95 154 0
-14 -79 97 154 0
-22 62 109 154 0
30 -61 111 154 0
-35 -60 116 154 0
-10 49 -82 -155 0
36 48 87 -155 0
33 55 -93 -155 0
15 58 96 -155 0
22 53 -101 -155 0
-31 55 110 -155 0
36 42 -112 -155 0
3 -69 120 -155 0
27 70 86 155 0
-39 -67 -93 155 0
-39 72 96 155 0
-11 -52 103 155 0
-18 -62 104 155 0
18 -59 106 155 0
-13 49 -107 155 0
-10 -73 -110 155 0
18 50 -116 155 0
19 52 117 155 0
-8 46 -87 -156 0
9 -72 88 -156 0
-9 48 93 -156 0
8 80 93 -156 0
-40 55 98 -156 0
12 -59 101 -156 0
9 76 105 -156 0
-33 -48 -106 -156 0
-30 75 -108 -156 0
3 73 -109 -156 0
-32 72 117 -156 0
35 77 120 -156 0
30 60 -86 156 0
-3 -76 99 156 0
-29 62 -100 156 0
-37 78 103 156 0
7 -80 -104 156 0
28 52 -106 156 0
-33 50 -107 156 0
19 62 110 156 0
-1 71 110 156 0
-29 75 113 156 0
11 53 116 156 0
36 77 119 156 0
9 -53 -120 156 0
31 64 -86 -157 0
28 68 -87 -157 0
-11 -79 -97 -157 0
-10 -79 -98 -157 0
28 43 102 -157 0
17 69 105 -157 0
32 -61 -110 -157 0
36 -68 112 -157 0
-16 -64 114 -157 0
14 -71 117 -157 0
-1 51 -82 157 0
36 -63 -82 157 0
-1 -49 -89 157 0
-40 61 -94 157 0
28 -49 95 157 0
-8 -66 104 157 0
-32 -52 108 157 0
2 73 113 157 0
-5 45 115 157 0
35 48 -81 -158 0
34 -73 -83 -158 0
-8 72 84 -158 0
36 -48 -87 -158 0
30 79 -93 -158 0
30 -76 95 -158 0
7 -48 112 -158 0
28 -69 -113 -158 0
-2 54 -119 -158 0
31 78 -119 -158 0
-34 -63 88 158 0
22 56 -96 158 0
-11 62 96 158 0
11 60 101 158 0
25 -59 -105 158 0
-32 -77 -110 158 0
22 -72 110 158 0
-2 75 110 158 0
1 70 119 158 0
1 -66 -82 -159 0
-27 45 -89 -159 0
-25 70 -92 -159 0
12 49 92 -159 0
37 75 -98 -159 0
16 62 -100 -159 0
7 59 106 -159 0
29 -68 -107 -159 0
-26 45 -111 -159 0
-22 77 113 -159 0
27 -76 -89 159 0
21 44 -94 159 0
25 43 95 159 0
-6 -76 -96 159 0
-24 -76 -96 159 0
12 51 99 159 0
25 69 -104 159 0
32 -67 104 159 0
10 -69 104 159 0
26 -60 -81 -160 0
-33 41 -82 -160 0
-14 64 -86 -160 0
-25 -76 90 -160 0
2 -50 102 -160 0
24 61 105 -160 0
29 48 -113 -160 0
31 64 -114 -160 0
6 53 120 -160 0
-3 59 82 160 0
-11 -55 -84 160 0
-19 42 87 160 0
-37 -49 -104 160 0
-22 49 -115 160 0
